Minimize
  11200 DN + 9200 DB + 10900 DG + 10700 DK + 10800 DC + 
20400 CN + 20300 CB + 20300 CG + 20200 CK + 20200 CC + 
27700 FN + 28900 FB + 28900 FG + 28800 FK + 28800 FC + 
19200 GSN + 19100 GSB + 17600 GSG + 17700 GSK + 17800 GSC + 
10900 DG22 + 10700 DK22 + 10800 DC22 + 
20300 CG22 + 20200 CK22 + 20200 CC22 + 
28900 FG22 + 28800 FK22 + 28800 FC22 + 
17600 GSG22 + 17700 GSK22 + 17800 GSC22 + 
10900 DG23 + 10700 DK23 + 10800 DC23 + 
20300 CG23 + 20200 CK23 + 20200 CC23 + 
28900 FG23 + 28800 FK23 + 28800 FC23 + 
17600 GSG23 + 17700 GSK23 + 17800 GSC23 
Subject to
  DelhiSupply: 1 DN + 1 DB + 1 DG + 1 DK + 1 DC <= 52  
  ChinaSupply: 1 CN + 1 CB + 1 CG + 1 CK + 1 CC <= 52 
  FremontSupply: 1 FN + 1 FB + 1 FG + 1 FK + 1 FC <= 52 
  GautengSupply: 1 GSN + 1 GSB + 1 GSG + 1 GSK + 1 GSC <= 40 
  Delhi2022Supply: 1 DG22 + 1 DK22 + 1 DC22 <= 52 
  China2022Supply: 1 CG22 + 1 CK22 + 1 CC22 <= 52 
  Fremont2022Supply: 1 FG22 + 1 FK22 + 1 FC22 <= 52 
  Gauteng2022Supply: 1 GSG22 + 1 GSK22 + 1 GSC22 <= 200 
  Delhi2023Supply: 1 DG23 + 1 DK23 + 1 DC23 <= 52 
  China2023Supply: 1 CG23 + 1 CK23 + 1 CC23 <= 52 
  Fremont2023Supply: 1 FG23 + 1 FK23 + 1 FC23 <= 52 
  Gauteng2023Supply: 1 GSG23 + 1 GSK23 + 1 GSC23 <= 300
  BangaloreDemand: 1 DB + 1 CB + 1 FB + 1 GSB  >= 4
  GautengDemand: 1 DG + 1 CG + 1 FG + 1 GSG >= 45 
  KwazuluDemand: 1 DK + 1 CK + 1 FK + 1 GSK >= 45 
  CapeDemand: 1 DC + 1 CC + 1 FC + 1 GSC >= 45 
  Gauteng2022Demand: 1 DG22 + 1 CG22 + 1 FG22 + 1 GSG22 >= 45 
  Kwazulu2022Demand: 1 DK22 + 1 CK22 + 1 FK22 + 1 GSK22 >= 45 
  Cape2022Demand: 1 DC22 + 1 CC22 + 1 FC22 + 1 GSC22 >= 45 
  Gauteng2023Demand: 1 DG23 + 1 CG23 + 1 FG23 + 1 GSG23 >= 45 
  Kwazulu2023Demand: 1 DK23 + 1 CK23 + 1 FK23 + 1 GSK23 >= 45 
  Cape2023Demand: 1 DC23 + 1 CC23 + 1 FC23 + 1 GSC23 >= 45 
 Bounds: 
  DN >= 0
  DB >= 0
  DG >= 0
  DK >= 0
  DC >= 0
  CN >= 0
  CB >= 0
  CG >= 0
  CK >= 0
  CC >= 0
  FN >= 0
  FB >= 0
  FG >= 0
  FK >= 0
  FC >= 0
  GSN >= 0
  GSB >= 0
  GSG >= 0
  GSK >= 0
  GSC >= 0
  DG22 >= 0
  DK22 >= 0
  DC22 >= 0
  CG22 >= 0
  CK22 >= 0
  CC22 >= 0
  FG22 >= 0
  FK22 >= 0
  FC22 >= 0
  GSG22 >= 0
  GSK22 >= 0
  GSC22 >= 0
  DG23 >= 0
  DK23 >= 0
  DC23 >= 0
  CG23 >= 0
  CK23 >= 0
  CC23 >= 0
  FG23 >= 0
  FK23 >= 0
  FC23 >= 0
  GSG23 >= 0
  GSK23 >= 0
  GSC23 >= 0
End